\ This file has been generated by DOcplex
\ ENCODING=ISO-8859-1
\Problem name: random_problem.lp

Minimize
 obj: - 8 x0 - 4 x1 + 4 x2 - 5 x3 - x4 + 6 x5 - 10 x6 + 8 x7 - 4 x8 - 3 x9
      + 2 x10 - 3 x11 - 5 x12 - 5 x13 - 7 x14 - 6 x15 + x16 + [ - 12 x0*x1
      + 20 x0*x4 - 8 x0*x6 + 20 x0*x8 - 2 x0*x15 + 4 x1*x3 - 2 x1*x8 + 6 x1*x9
      - 16 x1*x10 + 12 x2*x6 - 6 x2*x8 - 16 x2*x9 + 14 x2*x14 + 18 x2*x16
      - 18 x3*x4 + 12 x3*x12 + 20 x3*x13 - 2 x3*x14 + 8 x4*x5 + 2 x4*x6
      - 14 x4*x16 - 20 x5*x7 - 2 x5*x9 + 12 x5*x14 - 18 x5*x16 + 16 x6*x7
      - 12 x6*x9 - 6 x7*x9 - 2 x7*x10 - 8 x7*x12 + 14 x8*x10 + 10 x8*x11
      + 8 x10*x13 + 14 x10*x15 - 2 x11*x12 - 16 x11*x13 + 16 x11*x14
      - 18 x11*x15 + 10 x12*x15 + 14 x12*x16 + 8 x13*x15 - 4 x13*x16 ]/2
Subject To
 c0: x3 + x5 - x6 - x9 + 2 x13 = 0
 c1: - x0 + x1 + 2 x7 + 2 x9 - 2 x12 = 1
 c2: x3 + x5 - x8 - x9 - x14 = 0

Bounds
 0 <= x0 <= 1
 0 <= x1 <= 1
 0 <= x2 <= 1
 0 <= x3 <= 1
 0 <= x4 <= 1
 0 <= x5 <= 1
 0 <= x6 <= 1
 0 <= x7 <= 1
 0 <= x8 <= 1
 0 <= x9 <= 1
 0 <= x10 <= 1
 0 <= x11 <= 1
 0 <= x12 <= 1
 0 <= x13 <= 1
 0 <= x14 <= 1
 0 <= x15 <= 1
 0 <= x16 <= 1

Binaries
 x0 x1 x2 x3 x4 x5 x6 x7 x8 x9 x10 x11 x12 x13 x14 x15 x16
End
